problems/csplib-prob026/SportsTournamentScheduling-models/noch/O2/lingeling/model_2-06-solution000001.eprime-solution
language ESSENCE' 1.0

letting sched_RelationAsSetR3_ExplicitR3_1 be [1, 1, 1, 2, 2, 2, 3, 3, 3, 4, 4, 4, 5, 5, 5; int(1..15)]
letting sched_RelationAsSetR3_ExplicitR3_2 be [2, 2, 3, 2, 2, 3, 1, 1, 3, 1, 1, 2, 2, 3, 3; int(1..15)]
letting sched_RelationAsSetR3_ExplicitR3_3_Explicit be
        [[1, 2; int(1..2)], [4, 6; int(1..2)], [3, 5; int(1..2)], [1, 5; int(1..2)], [3, 4; int(1..2)],
         [2, 6; int(1..2)], [2, 5; int(1..2)], [3, 6; int(1..2)], [1, 4; int(1..2)], [1, 6; int(1..2)],
         [4, 5; int(1..2)], [2, 3; int(1..2)], [5, 6; int(1..2)], [1, 3; int(1..2)], [2, 4; int(1..2)]; int(1..15)]
